     Program PWSCF v.6.3MaX starts on  7Apr2024 at 22:21:44

     R & G space division:  proc/nbgrp/npool/nimage =       5
     Waiting for input...
     Reading input from standard input

     Current dimensions of program PWSCF are:
     Max number of different atomic species (ntypx) = 10
     Max number of k-points (npk) =  40000
     Max angular momentum in pseudopotentials (lmaxx) =  3
               file Fr.pz-spdn-kjpaw_psl.1.0.0.UPF: wavefunction(s)  6P renormalized

     Subspace diagonalization in iterative solution of the eigenvalue problem:
     a serial algorithm will be used

     bravais-lattice index     =            2
     lattice parameter (alat)  =       6.8300  a.u.
     unit-cell volume          =      79.6530 (a.u.)^3
     number of atoms/cell      =            1
     number of atomic types    =            1
     number of electrons       =        19.00
     number of Kohn-Sham states=           14
     kinetic-energy cutoff     =      15.0000  Ry
     charge density cutoff     =      60.0000  Ry
     convergence threshold     =      1.0E-08
     mixing beta               =       0.7000
     number of iterations used =            8  plain     mixing
     Exchange-correlation      = SLA PZ NOGX NOGC ( 1  1  0  0 0 0)

     celldm(1)=   6.830000  celldm(2)=   0.000000  celldm(3)=   0.000000
     celldm(4)=   0.000000  celldm(5)=   0.000000  celldm(6)=   0.000000

     crystal axes: (cart. coord. in units of alat)
               a(1) = (  -0.500000   0.000000   0.500000 )
               a(2) = (   0.000000   0.500000   0.500000 )
               a(3) = (  -0.500000   0.500000   0.000000 )

     reciprocal axes: (cart. coord. in units 2 pi/alat)
               b(1) = ( -1.000000 -1.000000  1.000000 )
               b(2) = (  1.000000  1.000000  1.000000 )
               b(3) = ( -1.000000  1.000000 -1.000000 )

     PseudoPot. # 1 for Fr read from file:
     /home/lorenzo/pseudos/Fr/Fr.pz-spdn-kjpaw_psl.1.0.0.UPF
     MD5 check sum: 60dafd115682613df3cc92ec23a62a32
     Pseudo is Projector augmented-wave + core cor, Zval = 19.0
     Generated using "atomic" code by A. Dal Corso v.6.2.2
     Shape of augmentation charge: PSQ
     Using radial grid of 1287 points,  6 beta functions with:
                l(1) =   0
                l(2) =   0
                l(3) =   1
                l(4) =   1
                l(5) =   2
                l(6) =   2
     Q(r) pseudized with 0 coefficients

     atomic species   valence    mass     pseudopotential
        Fr            19.00   223.00000     Fr( 1.00)

     48 Sym. Ops., with inversion, found

   Cartesian axes

     site n.     atom                  positions (alat units)
         1           Fr  tau(   1) = (   0.0000000   0.0000000   0.0000000  )

     number of k points=     4  gaussian smearing, width (Ry)=  0.0100
                       cart. coord. in units 2pi/alat
        k(    1) = (   0.0000000   0.0000000   0.0000000), wk =   0.0740741
        k(    2) = (  -0.3333333   0.3333333  -0.3333333), wk =   0.5925926
        k(    3) = (   0.0000000   0.6666667   0.0000000), wk =   0.4444444
        k(    4) = (   0.6666667  -0.0000000   0.6666667), wk =   0.8888889

     Check: negative/imaginary core charge=   -0.000424    0.000000

     Initial potential from superposition of free atoms

     starting charge   18.97647, renormalised to   19.00000
     Starting wfcs are   10 randomized atomic wfcs +    4 random wfcs
     Checking if some PAW data can be deallocated...

     Self-consistent Calculation

     iteration #  1     ecut=    15.00 Ry     beta= 0.70
     Davidson diagonalization with overlap
     ethr =  1.00E-02,  avg # of iterations =  4.0

     total energy              =   -1023.00616684 Ry
     Harris-Foulkes estimate   =   -1028.74075249 Ry
     estimated scf accuracy    <       6.70930573 Ry

[...]

     total energy              =   -1024.26795706 Ry
     Harris-Foulkes estimate   =   -1024.26795706 Ry
     estimated scf accuracy    <       0.00000003 Ry

     iteration #  7     ecut=    15.00 Ry     beta= 0.70
     Davidson diagonalization with overlap
     ethr =  1.37E-10,  avg # of iterations =  2.2

     End of self-consistent calculation

          k = 0.0000 0.0000 0.0000 (    65 PWs)   bands (ev):

     5.9487   5.9487   6.4786   9.3081   9.3081   9.3081  43.0686  43.0686
    43.0686  50.5092  53.8539  59.7909  59.7909  59.7909

          k =-0.3333 0.3333-0.3333 (    74 PWs)   bands (ev):

[...]

          k = 0.6667-0.0000 0.6667 (    81 PWs)   bands (ev):

    -0.4798   0.6665   0.8470   1.1150   6.1606  14.5506  28.0486  28.2321
    36.9181  51.5093  59.5980  62.3676  63.1954  64.8376

     the Fermi energy is    51.1317 ev

!    total energy              =   -1024.26795707 Ry
     Harris-Foulkes estimate   =   -1024.26795707 Ry
     estimated scf accuracy    <          1.4E-09 Ry

     total all-electron energy =    -48469.720930 Ry

     The total energy is the sum of the following terms:

     one-electron contribution =      27.67406031 Ry
     hartree contribution      =      17.45121383 Ry
     xc contribution           =     -60.65740383 Ry
     ewald contribution        =    -242.33312978 Ry
     one-center paw contrib.   =    -766.40156839 Ry
     smearing contrib. (-TS)   =      -0.00112922 Ry

     convergence has been achieved in   7 iterations

     Forces acting on atoms (cartesian axes, Ry/au):

     atom    1 type  1   force =     0.00000000    0.00000000    0.00000000

     Total force =     0.000000     Total SCF correction =     0.000000

     Computing stress (Cartesian axis) and pressure

          total   stress  (Ry/bohr**3)                   (kbar)     P=********
  -0.31049588  -0.00000000   0.00000000     -45675.51     -0.00      0.00
   0.00000000  -0.31049588   0.00000000          0.00 -45675.51      0.00
   0.00000000   0.00000000  -0.31049588          0.00      0.00 -45675.51

     Writing output data file Fr.save/

     General routines

     Parallel routines

   This run was terminated on:  22:21:45   7Apr2024

   JOB DONE.