     Program PWSCF v.6.3MaX starts on 26Mar2024 at 11: 8:57

     R & G space division:  proc/nbgrp/npool/nimage =       5
     Waiting for input...
     Reading input from standard input

     Current dimensions of program PWSCF are:
     Max number of different atomic species (ntypx) = 10
     Max number of k-points (npk) =  40000
     Max angular momentum in pseudopotentials (lmaxx) =  3
               file Au.pbesol-n-kjpaw_psl.1.0.0.UPF: wavefunction(s)  6S 5D renormalized

     Subspace diagonalization in iterative solution of the eigenvalue problem:
     a serial algorithm will be used

     bravais-lattice index     =            2
     lattice parameter (alat)  =       7.7100  a.u.
     unit-cell volume          =     114.5785 (a.u.)^3
     number of atoms/cell      =            1
     number of atomic types    =            1
     number of electrons       =        11.00
     number of Kohn-Sham states=           10
     kinetic-energy cutoff     =     100.0000  Ry
     charge density cutoff     =     400.0000  Ry
     convergence threshold     =      1.0E-08
     mixing beta               =       0.7000
     number of iterations used =            8  plain     mixing
     Exchange-correlation      = SLA PW PSX PSC ( 1  4 10  8 0 0)

     celldm(1)=   7.710000  celldm(2)=   0.000000  celldm(3)=   0.000000
     celldm(4)=   0.000000  celldm(5)=   0.000000  celldm(6)=   0.000000

     crystal axes: (cart. coord. in units of alat)
               a(1) = (  -0.500000   0.000000   0.500000 )
               a(2) = (   0.000000   0.500000   0.500000 )
               a(3) = (  -0.500000   0.500000   0.000000 )

     reciprocal axes: (cart. coord. in units 2 pi/alat)
               b(1) = ( -1.000000 -1.000000  1.000000 )
               b(2) = (  1.000000  1.000000  1.000000 )
               b(3) = ( -1.000000  1.000000 -1.000000 )

     PseudoPot. # 1 for Au read from file:
     /home/lorenzo/pseudos/Au/Au.pbesol-n-kjpaw_psl.1.0.0.UPF
     MD5 check sum: abc371be705c47a6b6a6b4088b452d3e
     Pseudo is Projector augmented-wave + core cor, Zval = 11.0
     Generated using "atomic" code by A. Dal Corso v.6.3
     Shape of augmentation charge: PSQ
     Using radial grid of 1279 points,  6 beta functions with:
                l(1) =   0
                l(2) =   0
                l(3) =   1
                l(4) =   1
                l(5) =   2
                l(6) =   2
     Q(r) pseudized with 0 coefficients

     atomic species   valence    mass     pseudopotential
        Au            11.00   196.96600     Au( 1.00)

     48 Sym. Ops., with inversion, found

   Cartesian axes

     site n.     atom                  positions (alat units)
         1           Au  tau(   1) = (   0.0000000   0.0000000   0.0000000  )

     number of k points=     8  gaussian smearing, width (Ry)=  0.0100
                       cart. coord. in units 2pi/alat
        k(    1) = (   0.0000000   0.0000000   0.0000000), wk =   0.0312500
        k(    2) = (  -0.2500000   0.2500000  -0.2500000), wk =   0.2500000
        k(    3) = (   0.5000000  -0.5000000   0.5000000), wk =   0.1250000
        k(    4) = (   0.0000000   0.5000000   0.0000000), wk =   0.1875000
        k(    5) = (   0.7500000  -0.2500000   0.7500000), wk =   0.7500000
        k(    6) = (   0.5000000   0.0000000   0.5000000), wk =   0.3750000
        k(    7) = (   0.0000000  -1.0000000   0.0000000), wk =   0.0937500
        k(    8) = (  -0.5000000  -1.0000000   0.0000000), wk =   0.1875000

     Initial potential from superposition of free atoms

     starting charge   10.99990, renormalised to   11.00000
     Starting wfcs are    9 randomized atomic wfcs +    1 random wfcs
     Checking if some PAW data can be deallocated...

     Self-consistent Calculation

     iteration #  1     ecut=   100.00 Ry     beta= 0.70
     Davidson diagonalization with overlap
     ethr =  1.00E-02,  avg # of iterations =  6.2

     Threshold (ethr) on eigenvalues was too large:
     Diagonalizing with lowered threshold

     Davidson diagonalization with overlap
     ethr =  5.42E-04,  avg # of iterations =  1.8

     total energy              =    -764.64385161 Ry
     Harris-Foulkes estimate   =    -764.68702766 Ry
     estimated scf accuracy    <       0.06283544 Ry

[...]

     negative rho (up, down):  1.370E-03 0.000E+00

[...]

     total energy              =    -764.66701004 Ry
     Harris-Foulkes estimate   =    -764.66701004 Ry
     estimated scf accuracy    <       0.00000002 Ry

     iteration # 17     ecut=   100.00 Ry     beta= 0.70
     Davidson diagonalization with overlap
     ethr =  9.99E-11,  avg # of iterations =  2.2

[...]

     End of self-consistent calculation

          k = 0.0000 0.0000 0.0000 (  1917 PWs)   bands (ev):

     5.8114  11.0766  11.0766  11.0766  12.6209  12.6209  31.1257  34.9878
    34.9878  34.9878

          k =-0.2500 0.2500-0.2500 (  1934 PWs)   bands (ev):

[...]

          k = 0.0000-1.0000 0.0000 (  1964 PWs)   bands (ev):

[...]

          k =-0.5000-1.0000 0.0000 (  1912 PWs)   bands (ev):

     9.7877  10.5937  10.5937  12.4687  14.1494  20.5419  22.0596  22.0596
    25.2766  39.0940

     the Fermi energy is    16.6103 ev

!    total energy              =    -764.66701004 Ry
     Harris-Foulkes estimate   =    -764.66701004 Ry
     estimated scf accuracy    <          5.2E-10 Ry

     total all-electron energy =    -38013.501472 Ry

     The total energy is the sum of the following terms:

     one-electron contribution =      13.88244081 Ry
     hartree contribution      =       7.57794320 Ry
     xc contribution           =     -31.83213992 Ry
     ewald contribution        =     -71.95438534 Ry
     one-center paw contrib.   =    -682.34039577 Ry
     smearing contrib. (-TS)   =      -0.00047302 Ry

     convergence has been achieved in  17 iterations

     negative rho (up, down):  1.470E-02 0.000E+00

     Forces acting on atoms (cartesian axes, Ry/au):

     atom    1 type  1   force =     0.00000000    0.00000000    0.00000000

     Total force =     0.000000     Total SCF correction =     0.000000

     Computing stress (Cartesian axis) and pressure

     negative rho (up, down):  1.470E-02 0.000E+00
          total   stress  (Ry/bohr**3)                   (kbar)     P=   36.05
   0.00024509   0.00000000   0.00000000         36.05      0.00      0.00
   0.00000000   0.00024509   0.00000000          0.00     36.05      0.00
   0.00000000   0.00000000   0.00024509          0.00      0.00     36.05

     Writing output data file Au.save/

     General routines

     Parallel routines

   This run was terminated on:  11: 9: 4  26Mar2024

   JOB DONE.