     Program PWSCF v.6.3MaX starts on 26Mar2024 at 12:14: 2

     R & G space division:  proc/nbgrp/npool/nimage =       5
     Waiting for input...
     Reading input from standard input

     Current dimensions of program PWSCF are:
     Max number of different atomic species (ntypx) = 10
     Max number of k-points (npk) =  40000
     Max angular momentum in pseudopotentials (lmaxx) =  3
               file Au.pbesol-n-kjpaw_psl.1.0.0.UPF: wavefunction(s)  6S 5D renormalized

     Subspace diagonalization in iterative solution of the eigenvalue problem:
     a serial algorithm will be used

     bravais-lattice index     =            2
     lattice parameter (alat)  =       7.7100  a.u.
     unit-cell volume          =     114.5785 (a.u.)^3
     number of atoms/cell      =            1
     number of atomic types    =            1
     number of electrons       =        11.00
     number of Kohn-Sham states=           10
     kinetic-energy cutoff     =      75.0000  Ry
     charge density cutoff     =     300.0000  Ry
     convergence threshold     =      1.0E-08
     mixing beta               =       0.7000
     number of iterations used =            8  plain     mixing
     Exchange-correlation      = SLA PW PSX PSC ( 1  4 10  8 0 0)

     celldm(1)=   7.710000  celldm(2)=   0.000000  celldm(3)=   0.000000
     celldm(4)=   0.000000  celldm(5)=   0.000000  celldm(6)=   0.000000

     crystal axes: (cart. coord. in units of alat)
               a(1) = (  -0.500000   0.000000   0.500000 )
               a(2) = (   0.000000   0.500000   0.500000 )
               a(3) = (  -0.500000   0.500000   0.000000 )

     reciprocal axes: (cart. coord. in units 2 pi/alat)
               b(1) = ( -1.000000 -1.000000  1.000000 )
               b(2) = (  1.000000  1.000000  1.000000 )
               b(3) = ( -1.000000  1.000000 -1.000000 )

     PseudoPot. # 1 for Au read from file:
     /home/lorenzo/pseudos/Au/Au.pbesol-n-kjpaw_psl.1.0.0.UPF
     MD5 check sum: abc371be705c47a6b6a6b4088b452d3e
     Pseudo is Projector augmented-wave + core cor, Zval = 11.0
     Generated using "atomic" code by A. Dal Corso v.6.3
     Shape of augmentation charge: PSQ
     Using radial grid of 1279 points,  6 beta functions with:
                l(1) =   0
                l(2) =   0
                l(3) =   1
                l(4) =   1
                l(5) =   2
                l(6) =   2
     Q(r) pseudized with 0 coefficients

     atomic species   valence    mass     pseudopotential
        Au            11.00   196.96600     Au( 1.00)

     48 Sym. Ops., with inversion, found

   Cartesian axes

     site n.     atom                  positions (alat units)
         1           Au  tau(   1) = (   0.0000000   0.0000000   0.0000000  )

     number of k points=     8  gaussian smearing, width (Ry)=  0.0100
                       cart. coord. in units 2pi/alat
        k(    1) = (   0.0000000   0.0000000   0.0000000), wk =   0.0312500
        k(    2) = (  -0.2500000   0.2500000  -0.2500000), wk =   0.2500000
        k(    3) = (   0.5000000  -0.5000000   0.5000000), wk =   0.1250000
        k(    4) = (   0.0000000   0.5000000   0.0000000), wk =   0.1875000
        k(    5) = (   0.7500000  -0.2500000   0.7500000), wk =   0.7500000
        k(    6) = (   0.5000000   0.0000000   0.5000000), wk =   0.3750000
        k(    7) = (   0.0000000  -1.0000000   0.0000000), wk =   0.0937500
        k(    8) = (  -0.5000000  -1.0000000   0.0000000), wk =   0.1875000

     Initial potential from superposition of free atoms

     starting charge   10.99990, renormalised to   11.00000
     Starting wfcs are    9 randomized atomic wfcs +    1 random wfcs
     Checking if some PAW data can be deallocated...

     Self-consistent Calculation

     iteration #  1     ecut=    75.00 Ry     beta= 0.70
     Davidson diagonalization with overlap
     ethr =  1.00E-02,  avg # of iterations =  6.1

     Threshold (ethr) on eigenvalues was too large:
     Diagonalizing with lowered threshold

     Davidson diagonalization with overlap
     ethr =  5.41E-04,  avg # of iterations =  1.9

     negative rho (up, down):  6.181E-04 0.000E+00

     total energy              =    -764.64481047 Ry
     Harris-Foulkes estimate   =    -764.68695010 Ry
     estimated scf accuracy    <       0.06281782 Ry

[...]

     negative rho (up, down):  3.664E-02 0.000E+00

[...]

     total energy              =    -764.66680810 Ry
     Harris-Foulkes estimate   =    -764.66680815 Ry
     estimated scf accuracy    <       0.00000038 Ry

     iteration # 30     ecut=    75.00 Ry     beta= 0.70
     Davidson diagonalization with overlap
     ethr =  1.95E-09,  avg # of iterations =  1.9

     End of self-consistent calculation

          k = 0.0000 0.0000 0.0000 (  1243 PWs)   bands (ev):

     5.8111  11.0776  11.0776  11.0776  12.6202  12.6202  31.1251  34.9877
    34.9877  34.9877

          k =-0.2500 0.2500-0.2500 (  1260 PWs)   bands (ev):

[...]

          k = 0.0000-1.0000 0.0000 (  1234 PWs)   bands (ev):

[...]

          k =-0.5000-1.0000 0.0000 (  1232 PWs)   bands (ev):

     9.7826  10.5954  10.5954  12.4686  14.1611  20.5158  22.1059  22.1059
    25.0673  39.3359

     the Fermi energy is    16.6154 ev

!    total energy              =    -764.66680812 Ry
     Harris-Foulkes estimate   =    -764.66680812 Ry
     estimated scf accuracy    <          2.6E-10 Ry

     total all-electron energy =    -38013.501270 Ry

     The total energy is the sum of the following terms:

     one-electron contribution =      13.88294197 Ry
     hartree contribution      =       7.57247818 Ry
     xc contribution           =     -31.82124580 Ry
     ewald contribution        =     -71.95438534 Ry
     one-center paw contrib.   =    -682.34612762 Ry
     smearing contrib. (-TS)   =      -0.00046951 Ry

     convergence has been achieved in  30 iterations

     Forces acting on atoms (cartesian axes, Ry/au):

     atom    1 type  1   force =     0.00000000    0.00000000    0.00000000

     Total force =     0.000000     Total SCF correction =     0.000000

     Computing stress (Cartesian axis) and pressure

          total   stress  (Ry/bohr**3)                   (kbar)     P=   37.27
   0.00025336  -0.00000000  -0.00000000         37.27     -0.00     -0.00
  -0.00000000   0.00025336   0.00000000         -0.00     37.27      0.00
  -0.00000000   0.00000000   0.00025336         -0.00      0.00     37.27

     Writing output data file Au.save/

     General routines

     Parallel routines

   This run was terminated on:  12:14:11  26Mar2024

   JOB DONE.