     Program PWSCF v.6.3MaX starts on 26Mar2024 at 11:13:36

     R & G space division:  proc/nbgrp/npool/nimage =       5
     Waiting for input...
     Reading input from standard input

     Current dimensions of program PWSCF are:
     Max number of different atomic species (ntypx) = 10
     Max number of k-points (npk) =  40000
     Max angular momentum in pseudopotentials (lmaxx) =  3
               file Au.pbesol-n-kjpaw_psl.1.0.0.UPF: wavefunction(s)  6S 5D renormalized

     Subspace diagonalization in iterative solution of the eigenvalue problem:
     a serial algorithm will be used

     bravais-lattice index     =            2
     lattice parameter (alat)  =       7.7100  a.u.
     unit-cell volume          =     114.5785 (a.u.)^3
     number of atoms/cell      =            1
     number of atomic types    =            1
     number of electrons       =        11.00
     number of Kohn-Sham states=           10
     kinetic-energy cutoff     =      10.0000  Ry
     charge density cutoff     =      40.0000  Ry
     convergence threshold     =      1.0E-08
     mixing beta               =       0.7000
     number of iterations used =            8  plain     mixing
     Exchange-correlation      = SLA PW PSX PSC ( 1  4 10  8 0 0)

     celldm(1)=   7.710000  celldm(2)=   0.000000  celldm(3)=   0.000000
     celldm(4)=   0.000000  celldm(5)=   0.000000  celldm(6)=   0.000000

     crystal axes: (cart. coord. in units of alat)
               a(1) = (  -0.500000   0.000000   0.500000 )
               a(2) = (   0.000000   0.500000   0.500000 )
               a(3) = (  -0.500000   0.500000   0.000000 )

     reciprocal axes: (cart. coord. in units 2 pi/alat)
               b(1) = ( -1.000000 -1.000000  1.000000 )
               b(2) = (  1.000000  1.000000  1.000000 )
               b(3) = ( -1.000000  1.000000 -1.000000 )

     PseudoPot. # 1 for Au read from file:
     /home/lorenzo/pseudos/Au/Au.pbesol-n-kjpaw_psl.1.0.0.UPF
     MD5 check sum: abc371be705c47a6b6a6b4088b452d3e
     Pseudo is Projector augmented-wave + core cor, Zval = 11.0
     Generated using "atomic" code by A. Dal Corso v.6.3
     Shape of augmentation charge: PSQ
     Using radial grid of 1279 points,  6 beta functions with:
                l(1) =   0
                l(2) =   0
                l(3) =   1
                l(4) =   1
                l(5) =   2
                l(6) =   2
     Q(r) pseudized with 0 coefficients

     atomic species   valence    mass     pseudopotential
        Au            11.00   196.96600     Au( 1.00)

     48 Sym. Ops., with inversion, found

   Cartesian axes

     site n.     atom                  positions (alat units)
         1           Au  tau(   1) = (   0.0000000   0.0000000   0.0000000  )

     number of k points=     1  gaussian smearing, width (Ry)=  0.0100
                       cart. coord. in units 2pi/alat
        k(    1) = (   0.0000000   0.0000000   0.0000000), wk =   2.0000000

     Check: negative/imaginary core charge=   -0.000056    0.000000

     Initial potential from superposition of free atoms

     starting charge   10.99990, renormalised to   11.00000

     negative rho (up, down):  4.226E-05 0.000E+00
     Starting wfcs are    9 randomized atomic wfcs +    1 random wfcs
     Checking if some PAW data can be deallocated...

     Self-consistent Calculation

     iteration #  1     ecut=    10.00 Ry     beta= 0.70
     Davidson diagonalization with overlap
     ethr =  1.00E-02,  avg # of iterations =  5.0

     total energy              =    -763.87768308 Ry
     Harris-Foulkes estimate   =    -764.61206933 Ry
     estimated scf accuracy    <       0.68962362 Ry

[...]

     negative rho (up, down):  4.199E-04 0.000E+00

[...]

     negative rho (up, down):  3.104E-04 0.000E+00

[...]

     total energy              =    -764.17650553 Ry
     Harris-Foulkes estimate   =    -764.17650705 Ry
     estimated scf accuracy    <       0.00000092 Ry

     iteration # 74     ecut=    10.00 Ry     beta= 0.70
     Davidson diagonalization with overlap
     ethr =  3.04E-10,  avg # of iterations =  2.0

     End of self-consistent calculation

          k = 0.0000 0.0000 0.0000 (    59 PWs)   bands (ev):

     5.9734  10.2911  10.2911  10.2911  10.4281  10.4281  32.5004  35.3938
    35.3938  35.3938

     the Fermi energy is    10.4999 ev

!    total energy              =    -764.17650606 Ry
     Harris-Foulkes estimate   =    -764.17650623 Ry
     estimated scf accuracy    <          3.8E-09 Ry

     total all-electron energy =    -38013.010968 Ry

     The total energy is the sum of the following terms:

     one-electron contribution =      14.77857488 Ry
     hartree contribution      =       5.55006560 Ry
     xc contribution           =     -30.84841961 Ry
     ewald contribution        =     -71.95438535 Ry
     one-center paw contrib.   =    -681.69219985 Ry
     smearing contrib. (-TS)   =      -0.01014173 Ry

     convergence has been achieved in  74 iterations

     Forces acting on atoms (cartesian axes, Ry/au):

     atom    1 type  1   force =     0.00000000    0.00000000    0.00000000

     Total force =     0.000000     Total SCF correction =     0.000000

     Computing stress (Cartesian axis) and pressure

          total   stress  (Ry/bohr**3)                   (kbar)     P=-5841.56
  -0.03971010  -0.00000000  -0.00000000      -5841.56     -0.00     -0.00
  -0.00000000  -0.03971010   0.00000000         -0.00  -5841.56      0.00
  -0.00000000   0.00000000  -0.03971010         -0.00      0.00  -5841.56

     Writing output data file Au.save/

     General routines

     Parallel routines

   This run was terminated on:  11:13:47  26Mar2024

   JOB DONE.