     Program PWSCF v.6.3MaX starts on 26Mar2024 at 22:28:28

     R & G space division:  proc/nbgrp/npool/nimage =       5
     Waiting for input...
     Reading input from standard input

     Current dimensions of program PWSCF are:
     Max number of different atomic species (ntypx) = 10
     Max number of k-points (npk) =  40000
     Max angular momentum in pseudopotentials (lmaxx) =  3
               file Ni.pbesol-spn-kjpaw_psl.1.0.0.UPF: wavefunction(s)  3P 3D renormalized

     Subspace diagonalization in iterative solution of the eigenvalue problem:
     a serial algorithm will be used

     bravais-lattice index     =            2
     lattice parameter (alat)  =       6.6500  a.u.
     unit-cell volume          =      73.5199 (a.u.)^3
     number of atoms/cell      =            1
     number of atomic types    =            1
     number of electrons       =        18.00
     number of Kohn-Sham states=           13
     kinetic-energy cutoff     =      25.0000  Ry
     charge density cutoff     =     100.0000  Ry
     convergence threshold     =      1.0E-08
     mixing beta               =       0.7000
     number of iterations used =            8  plain     mixing
     Exchange-correlation      = SLA PW PSX PSC ( 1  4 10  8 0 0)

     celldm(1)=   6.650000  celldm(2)=   0.000000  celldm(3)=   0.000000
     celldm(4)=   0.000000  celldm(5)=   0.000000  celldm(6)=   0.000000

     crystal axes: (cart. coord. in units of alat)
               a(1) = (  -0.500000   0.000000   0.500000 )
               a(2) = (   0.000000   0.500000   0.500000 )
               a(3) = (  -0.500000   0.500000   0.000000 )

     reciprocal axes: (cart. coord. in units 2 pi/alat)
               b(1) = ( -1.000000 -1.000000  1.000000 )
               b(2) = (  1.000000  1.000000  1.000000 )
               b(3) = ( -1.000000  1.000000 -1.000000 )

     PseudoPot. # 1 for Ni read from file:
     /home/lorenzo/pseudos/Ni/Ni.pbesol-spn-kjpaw_psl.1.0.0.UPF
     MD5 check sum: ef06ee83099c2673f0516457bd731f51
     Pseudo is Projector augmented-wave + core cor, Zval = 18.0
     Generated using "atomic" code by A. Dal Corso v.6.3
     Shape of augmentation charge: PSQ
     Using radial grid of 1195 points,  6 beta functions with:
                l(1) =   0
                l(2) =   0
                l(3) =   1
                l(4) =   1
                l(5) =   2
                l(6) =   2
     Q(r) pseudized with 0 coefficients

     atomic species   valence    mass     pseudopotential
        Ni            18.00    58.69340     Ni( 1.00)

     48 Sym. Ops., with inversion, found

   Cartesian axes

     site n.     atom                  positions (alat units)
         1           Ni  tau(   1) = (   0.0000000   0.0000000   0.0000000  )

     number of k points=     4  gaussian smearing, width (Ry)=  0.0100
                       cart. coord. in units 2pi/alat
        k(    1) = (   0.0000000   0.0000000   0.0000000), wk =   0.0740741
        k(    2) = (  -0.3333333   0.3333333  -0.3333333), wk =   0.5925926
        k(    3) = (   0.0000000   0.6666667   0.0000000), wk =   0.4444444
        k(    4) = (   0.6666667  -0.0000000   0.6666667), wk =   0.8888889

     Check: negative/imaginary core charge=   -0.000245    0.000000

     Initial potential from superposition of free atoms
     Check: negative starting charge=   -0.002896

     starting charge   17.99977, renormalised to   18.00000

     negative rho (up, down):  2.896E-03 0.000E+00
     Starting wfcs are   10 randomized atomic wfcs +    3 random wfcs
     Checking if some PAW data can be deallocated...

     Self-consistent Calculation

     iteration #  1     ecut=    25.00 Ry     beta= 0.70
     Davidson diagonalization with overlap
     ethr =  1.00E-02,  avg # of iterations =  4.5

     total energy              =    -412.27196052 Ry
     Harris-Foulkes estimate   =    -417.50484700 Ry
     estimated scf accuracy    <       6.23942729 Ry

[...]

     negative rho (up, down):  4.492E-04 0.000E+00

[...]

     total energy              =    -415.52103205 Ry
     Harris-Foulkes estimate   =    -415.52103257 Ry
     estimated scf accuracy    <       0.00000129 Ry

     iteration #  8     ecut=    25.00 Ry     beta= 0.70
     Davidson diagonalization with overlap
     ethr =  7.17E-09,  avg # of iterations =  2.0

[...]

     End of self-consistent calculation

          k = 0.0000 0.0000 0.0000 (   169 PWs)   bands (ev):

   -97.9525 -48.0232 -48.0232 -48.0232   9.8517  14.0253  14.0253  15.3339
    15.3339  15.3339  42.5028  46.1077  46.1077

          k =-0.3333 0.3333-0.3333 (   153 PWs)   bands (ev):

[...]

          k = 0.6667-0.0000 0.6667 (   164 PWs)   bands (ev):

   -97.6782 -46.5534 -46.4080 -45.8250  14.6641  15.2503  16.1802  16.4524
    17.3588  23.0448  26.3417  29.1281  37.4358

     the Fermi energy is    19.9359 ev

!    total energy              =    -415.52103225 Ry
     Harris-Foulkes estimate   =    -415.52103225 Ry
     estimated scf accuracy    <          2.1E-09 Ry

     total all-electron energy =     -3027.979377 Ry

     The total energy is the sum of the following terms:

     one-electron contribution =    -164.20008899 Ry
     hartree contribution      =      93.13838050 Ry
     xc contribution           =     -32.80934592 Ry
     ewald contribution        =    -223.38275373 Ry
     one-center paw contrib.   =     -88.26317212 Ry
     smearing contrib. (-TS)   =      -0.00405199 Ry

     convergence has been achieved in   8 iterations

     negative rho (up, down):  7.006E-05 0.000E+00

     Forces acting on atoms (cartesian axes, Ry/au):

     atom    1 type  1   force =     0.00000000    0.00000000    0.00000000

     Total force =     0.000000     Total SCF correction =     0.000000

     Computing stress (Cartesian axis) and pressure

     negative rho (up, down):  7.006E-05 0.000E+00
          total   stress  (Ry/bohr**3)                   (kbar)     P=********
  -0.51392645   0.00000000   0.00000000     -75601.18      0.00      0.00
   0.00000000  -0.51392645  -0.00000000          0.00 -75601.18     -0.00
   0.00000000  -0.00000000  -0.51392645          0.00     -0.00 -75601.18

     Writing output data file Ni.save/

     General routines

     Parallel routines

   This run was terminated on:  22:28:30  26Mar2024

   JOB DONE.