     Program PWSCF v.6.3MaX starts on 26Mar2024 at 22:24:33

     R & G space division:  proc/nbgrp/npool/nimage =       5
     Waiting for input...
     Reading input from standard input

     Current dimensions of program PWSCF are:
     Max number of different atomic species (ntypx) = 10
     Max number of k-points (npk) =  40000
     Max angular momentum in pseudopotentials (lmaxx) =  3

     Subspace diagonalization in iterative solution of the eigenvalue problem:
     a serial algorithm will be used

     bravais-lattice index     =            2
     lattice parameter (alat)  =       6.6500  a.u.
     unit-cell volume          =      73.5199 (a.u.)^3
     number of atoms/cell      =            1
     number of atomic types    =            1
     number of electrons       =        18.00
     number of Kohn-Sham states=           13
     kinetic-energy cutoff     =      15.0000  Ry
     charge density cutoff     =      60.0000  Ry
     convergence threshold     =      1.0E-08
     mixing beta               =       0.7000
     number of iterations used =            8  plain     mixing
     Exchange-correlation      = PBE ( 1  4  3  4 0 0)

     celldm(1)=   6.650000  celldm(2)=   0.000000  celldm(3)=   0.000000
     celldm(4)=   0.000000  celldm(5)=   0.000000  celldm(6)=   0.000000

     crystal axes: (cart. coord. in units of alat)
               a(1) = (  -0.500000   0.000000   0.500000 )
               a(2) = (   0.000000   0.500000   0.500000 )
               a(3) = (  -0.500000   0.500000   0.000000 )

     reciprocal axes: (cart. coord. in units 2 pi/alat)
               b(1) = ( -1.000000 -1.000000  1.000000 )
               b(2) = (  1.000000  1.000000  1.000000 )
               b(3) = ( -1.000000  1.000000 -1.000000 )

     PseudoPot. # 1 for Ni read from file:
     /home/lorenzo/pseudos/Ni/Ni.pbe-spn-rrkjus_psl.1.0.0.UPF
     MD5 check sum: 8b3fc9aac6dafe35f580d41bb18c3945
     Pseudo is Ultrasoft + core correction, Zval = 18.0
     Generated using "atomic" code by A. Dal Corso v.6.3
     Using radial grid of 1195 points,  6 beta functions with:
                l(1) =   0
                l(2) =   0
                l(3) =   1
                l(4) =   1
                l(5) =   2
                l(6) =   2
     Q(r) pseudized with 0 coefficients

     atomic species   valence    mass     pseudopotential
        Ni            18.00    58.69340     Ni( 1.00)

     48 Sym. Ops., with inversion, found

   Cartesian axes

     site n.     atom                  positions (alat units)
         1           Ni  tau(   1) = (   0.0000000   0.0000000   0.0000000  )

     number of k points=     3  gaussian smearing, width (Ry)=  0.0100
                       cart. coord. in units 2pi/alat
        k(    1) = (   0.0000000   0.0000000   0.0000000), wk =   0.2500000
        k(    2) = (   0.5000000  -0.5000000   0.5000000), wk =   1.0000000
        k(    3) = (   0.0000000  -1.0000000   0.0000000), wk =   0.7500000

     Check: negative/imaginary core charge=   -0.001438    0.000000

     Initial potential from superposition of free atoms
     Check: negative starting charge=   -0.125583

     starting charge   17.99975, renormalised to   18.00000

     negative rho (up, down):  1.256E-01 0.000E+00
     Starting wfcs are   10 randomized atomic wfcs +    3 random wfcs

     Self-consistent Calculation

     iteration #  1     ecut=    15.00 Ry     beta= 0.70
     Davidson diagonalization with overlap
     ethr =  1.00E-02,  avg # of iterations =  3.7

     total energy              =    -269.08430682 Ry
     Harris-Foulkes estimate   =    -309.33295769 Ry
     estimated scf accuracy    <      48.87732078 Ry

[...]

     negative rho (up, down):  3.042E-04 0.000E+00

[...]

     total energy              =    -278.90795849 Ry
     Harris-Foulkes estimate   =    -278.90795850 Ry
     estimated scf accuracy    <       0.00000002 Ry

     iteration # 13     ecut=    15.00 Ry     beta= 0.70
     Davidson diagonalization with overlap
     ethr =  1.06E-10,  avg # of iterations =  1.0

[...]

     End of self-consistent calculation

          k = 0.0000 0.0000 0.0000 (    65 PWs)   bands (ev):

  -162.4291 -45.7838 -45.7838 -45.7838  13.6080  28.0261  28.0261  29.4033
    29.4033  29.4033  48.3770  53.0129  53.0129

[...]

          k = 0.0000-1.0000 0.0000 (    64 PWs)   bands (ev):

  -160.4541 -43.3809 -42.8718 -42.8718  23.1879  25.1111  29.4737  32.4201
    32.4201  35.2696  38.8109  41.6670  41.6670

     the Fermi energy is    29.4385 ev

!    total energy              =    -278.90795849 Ry
     Harris-Foulkes estimate   =    -278.90795849 Ry
     estimated scf accuracy    <          2.5E-10 Ry

     The total energy is the sum of the following terms:

     one-electron contribution =     -64.11273287 Ry
     hartree contribution      =      33.84252928 Ry
     xc contribution           =     -25.25104404 Ry
     ewald contribution        =    -223.38275371 Ry
     smearing contrib. (-TS)   =      -0.00395716 Ry

     convergence has been achieved in  13 iterations

     negative rho (up, down):  3.558E-03 0.000E+00

     Forces acting on atoms (cartesian axes, Ry/au):

     atom    1 type  1   force =     0.00000000    0.00000000    0.00000000

     Total force =     0.000000     Total SCF correction =     0.000000

     Computing stress (Cartesian axis) and pressure

     negative rho (up, down):  3.558E-03 0.000E+00
          total   stress  (Ry/bohr**3)                   (kbar)     P=********
  -0.84372719   0.00000000   0.00000000    -124116.53      0.00      0.00
   0.00000000  -0.84372719  -0.00000000          0.00-124116.53     -0.00
   0.00000000  -0.00000000  -0.84372719          0.00     -0.00-124116.53

     Writing output data file Ni.save/

     General routines

     Parallel routines

   This run was terminated on:  22:24:34  26Mar2024

   JOB DONE.